(set-logic QF_S)
(declare-fun var0 () String)
(declare-fun var1 () Int)
(declare-fun var2 () Bool)
(declare-fun var3 () String)
(declare-fun var4 () Int)
(declare-fun var5 () Bool)
(declare-fun var6 () String)
(declare-fun var7 () Int)
(declare-fun var8 () Bool)
(assert (str.prefixof (str.substr (str.replace var6 var0 var6) (str.indexof var3 var3 var4) (str.len var6)) (str.at (str.replace "u3EO{(,UEX" var0 var6) (str.indexof var0 var3 var1))))
(assert (not var8))
(assert (str.prefixof var3 var0))
(assert (<= var1 var1))
(check-sat)